Gurobi Optimizer version 9.1.0 build v9.1.0rc0 (linux64)
Thread count: 8 physical cores, 16 logical processors, using up to 16 threads
Optimize a model with 255286 rows, 240480 columns and 1381170 nonzeros
Model fingerprint: 0xcce397f6
Variable types: 0 continuous, 240480 integer (240480 binary)
Coefficient statistics:
  Matrix range     [1e+00, 1e+00]
  Objective range  [1e+01, 1e+05]
  Bounds range     [1e+00, 1e+00]
  RHS range        [1e+00, 1e+03]
Presolve added 0 rows and 5970 columns
Presolve removed 30 rows and 0 columns
Presolve time: 4.80s
Presolved: 255256 rows, 246450 columns, 1039110 nonzeros
Variable types: 0 continuous, 246450 integer (246450 binary)
Found heuristic solution: objective 835524.00000

Concurrent LP optimizer: primal simplex, dual simplex, and barrier
Showing barrier log only...

Root barrier log...

Ordering time: 0.08s

Barrier statistics:
 Dense cols : 240
 AA' NZ     : 8.111e+05
 Factor NZ  : 3.235e+06 (roughly 230 MBytes of memory)
 Factor Ops : 4.332e+08 (less than 1 second per iteration)
 Threads    : 6

                  Objective                Residual
Iter       Primal          Dual         Primal    Dual     Compl     Time
   0   3.46000446e+08 -4.77500671e+08  3.97e+02 3.02e+01  3.11e+04    12s
   1   1.22385118e+07 -5.38559822e+08  2.65e+01 1.45e+04  2.07e+03    12s
   2   1.60510261e+06 -4.56140363e+08  1.61e+00 1.07e+04  7.01e+02    13s
   3   1.50191538e+06 -1.70745980e+08  1.37e+00 3.48e+03  2.68e+02    13s
   4   9.73611512e+05 -1.32488025e+08  6.85e-02 2.66e+03  1.84e+02    14s
   5   9.41602571e+05 -1.34679573e+07  5.55e-03 4.48e+02  1.98e+01    14s
   6   9.33085656e+05 -3.90944372e+06  4.42e-03 1.41e+02  6.63e+00    14s
   7   8.78405396e+05 -1.28494783e+06  1.73e-03 5.63e+01  2.96e+00    15s
   8   8.44772540e+05 -1.55220739e+04  1.16e-03 2.07e+01  1.17e+00    16s
   9   8.15145839e+05  4.48473227e+05  8.51e-04 7.32e+00  4.99e-01    16s
  10   8.03149465e+05  5.60755134e+05  7.52e-04 4.07e+00  3.29e-01    17s
  11   7.92689413e+05  5.94263869e+05  6.76e-04 3.02e+00  2.69e-01    17s
  12   7.88477556e+05  6.28952497e+05  6.44e-04 2.06e+00  2.16e-01    18s
  13   7.78222865e+05  6.51806732e+05  5.72e-04 1.31e+00  1.71e-01    18s
  14   7.54765456e+05  6.66988983e+05  4.23e-04 8.29e-01  1.19e-01    19s
  15   7.51685275e+05  6.72791526e+05  4.05e-04 6.55e-01  1.07e-01    20s
  16   7.35018087e+05  6.77191055e+05  2.91e-04 5.01e-01  7.82e-02    20s
  17   7.26646757e+05  6.81147945e+05  2.32e-04 3.76e-01  6.15e-02    21s
  18   7.18115999e+05  6.84392306e+05  1.72e-04 2.74e-01  4.56e-02    22s
  19   7.14276057e+05  6.86848591e+05  1.44e-04 2.02e-01  3.71e-02    22s
  20   7.09560834e+05  6.88429541e+05  1.12e-04 1.56e-01  2.86e-02    23s
  21   7.07658512e+05  6.89469187e+05  9.81e-05 1.27e-01  2.46e-02    23s
  22   7.05614213e+05  6.90680252e+05  8.44e-05 9.20e-02  2.02e-02    24s
  23   7.02334943e+05  6.91289775e+05  6.10e-05 7.63e-02  1.49e-02    24s
  24   7.00818248e+05  6.91820694e+05  5.03e-05 6.19e-02  1.22e-02    25s
  25   6.99708436e+05  6.92229578e+05  4.18e-05 5.10e-02  1.01e-02    26s
  26   6.98626329e+05  6.92534281e+05  3.38e-05 4.33e-02  8.23e-03    26s
  27   6.97896467e+05  6.92953109e+05  2.81e-05 3.27e-02  6.68e-03    27s
  28   6.97391563e+05  6.93175760e+05  2.42e-05 2.67e-02  5.70e-03    27s
  29   6.96697559e+05  6.93296518e+05  1.90e-05 2.36e-02  4.60e-03    28s
  30   6.96362648e+05  6.93415148e+05  1.64e-05 2.05e-02  3.98e-03    28s
  31   6.96159948e+05  6.93633591e+05  1.49e-05 1.54e-02  3.41e-03    29s
  32   6.95664578e+05  6.93718496e+05  1.14e-05 1.31e-02  2.63e-03    29s
  33   6.95466029e+05  6.93789398e+05  9.92e-06 1.12e-02  2.27e-03    30s
  34   6.95267147e+05  6.93915236e+05  8.37e-06 8.06e-03  1.83e-03    30s
  35   6.95148047e+05  6.93954089e+05  7.46e-06 7.05e-03  1.61e-03    31s
  36   6.95001427e+05  6.94005823e+05  6.30e-06 5.67e-03  1.34e-03    31s
  37   6.94948631e+05  6.94042163e+05  5.89e-06 4.76e-03  1.22e-03    32s
  38   6.94839457e+05  6.94070050e+05  5.02e-06 4.05e-03  1.04e-03    32s
  39   6.94716842e+05  6.94096991e+05  4.09e-06 3.33e-03  8.37e-04    33s
  40   6.94622627e+05  6.94125781e+05  3.32e-06 2.56e-03  6.71e-04    33s
  41   6.94599207e+05  6.94132465e+05  3.12e-06 2.39e-03  6.30e-04    33s
  42   6.94539555e+05  6.94145508e+05  2.62e-06 2.04e-03  5.32e-04    34s
  43   6.94490530e+05  6.94172485e+05  2.22e-06 1.38e-03  4.29e-04    34s
  44   6.94439095e+05  6.94178768e+05  1.79e-06 1.21e-03  3.51e-04    35s
  45   6.94401733e+05  6.94185530e+05  1.48e-06 1.04e-03  2.92e-04    35s
  46   6.94365312e+05  6.94196324e+05  1.18e-06 7.75e-04  2.28e-04    36s
  47   6.94346169e+05  6.94205415e+05  1.02e-06 5.40e-04  1.90e-04    37s
  48   6.94332843e+05  6.94208603e+05  9.09e-07 4.59e-04  1.68e-04    37s
  49   6.94307160e+05  6.94213352e+05  6.82e-07 3.41e-04  1.27e-04    38s
  50   6.94292119e+05  6.94216856e+05  5.57e-07 2.56e-04  1.02e-04    38s
  51   6.94280384e+05  6.94218797e+05  4.59e-07 2.13e-04  8.31e-05    39s
  52   6.94265114e+05  6.94220907e+05  3.23e-07 1.57e-04  5.97e-05    39s
  53   6.94258632e+05  6.94224298e+05  2.65e-07 8.85e-05  4.63e-05    40s
  54   6.94252517e+05  6.94225138e+05  2.19e-07 6.99e-05  3.69e-05    40s
  55   6.94249833e+05  6.94225942e+05  1.95e-07 5.39e-05  3.22e-05    41s
  56   6.94244388e+05  6.94226346e+05  1.47e-07 4.51e-05  2.43e-05    41s
  57   6.94241911e+05  6.94226652e+05  1.24e-07 3.85e-05  2.06e-05    42s
  58   6.94237129e+05  6.94226969e+05  7.89e-08 3.18e-05  1.37e-05    42s
  59   6.94232761e+05  6.94227836e+05  3.75e-08 1.43e-05  6.64e-06    43s
  60   6.94231646e+05  6.94227883e+05  2.76e-08 1.34e-05  5.08e-06    43s
  61   6.94230770e+05  6.94228206e+05  1.91e-08 7.75e-06  3.46e-06    43s
  62   6.94229663e+05  6.94228399e+05  9.36e-09 3.98e-06  1.71e-06    44s
  63   6.94229234e+05  6.94228537e+05  5.32e-09 1.57e-06  9.40e-07    44s
  64   6.94228749e+05  6.94228611e+05  8.83e-10 4.90e-07  1.87e-07    44s
  65   6.94228654e+05  6.94228647e+05  1.35e-10 1.15e-07  9.52e-09    45s
  66   6.94228654e+05  6.94228647e+05  1.63e-08 1.15e-07  9.52e-09    45s
  67   6.94228654e+05  6.94228647e+05  3.43e-08 1.15e-07  9.52e-09    46s
  68   6.94228654e+05  6.94228647e+05  1.73e-08 9.43e-08  9.52e-09    46s

Barrier solved model in 68 iterations and 46.25 seconds
Optimal objective 6.94228654e+05


Root crossover log...

  140420 variables added to crossover basis                       50s
  142269 variables added to crossover basis                       55s

  112252 DPushes remaining with DInf 2.5192012e-05                58s
    1308 DPushes remaining with DInf 0.0000000e+00                71s
       0 DPushes remaining with DInf 0.0000000e+00                73s

    1151 PPushes remaining with PInf 0.0000000e+00                73s
       0 PPushes remaining with PInf 0.0000000e+00                73s

  Push phase complete: Pinf 0.0000000e+00, Dinf 1.0303305e-09     73s


Root simplex log...

Iteration    Objective       Primal Inf.    Dual Inf.      Time
   17059    6.9422865e+05   0.000000e+00   0.000000e+00     74s
   17059    6.9422865e+05   0.000000e+00   0.000000e+00     74s

Solved with barrier

Root relaxation: objective 6.942286e+05, 17059 iterations, 63.71 seconds
Total elapsed time = 75.96s

    Nodes    |    Current Node    |     Objective Bounds      |     Work
 Expl Unexpl |  Obj  Depth IntInf | Incumbent    BestBd   Gap | It/Node Time

     0     0 694228.649    0 19978 835524.000 694228.649  16.9%     -   78s
H    0     0                    712265.00000 694228.649  2.53%     -   82s
H    0     0                    711925.00000 694228.649  2.49%     -   85s
H    0     0                    711226.00000 694228.649  2.39%     -   89s
     0     0 694228.649    0 19974 711226.000 694228.649  2.39%     -  277s

Explored 1 nodes (21428 simplex iterations) in 300.05 seconds
Thread count was 16 (of 16 available processors)

Solution count 4: 711226 711925 712265 835524 

Time limit reached
Best objective 7.112260000000e+05, best bound 6.942286488935e+05, gap 2.3899%

User-callback calls 22183, time in user-callback 0.44 sec
['/opt/local/stow/gurobi910/linux64/lib/libgurobi91.so']
Result: runtime=278.60sec; objective=711226
Solution written to /autofs/unityaccount/cremi/mdeboute/Bureau/multi-period-flp/solution/instMulti_I30_J1000_T8_0_result.txt
